120
150
43
44
88
57
94
63
24
79
97
79
53
37
42
87
37
53
97
38
68
72
57
44
82
38
57
26
30
66
66
88
95
84
55
76
26
62
38
42
66
31
42
62
33
58
51
54
30
59
99
71
89
59
53
66
93
66
29
36
45
51
20
84
57
82
84
79
76
84
96
90
79
87
54
31
63
95
29
94
87
21
33
63
71
84
33
26
90
93
88
94
66
22
68
27
97
57
59
23
30
66
66
97
97
44
71
74
84
66
97
97
53
44
76
93
53
97
58
57
73
44
